instances/in_50_25_6_1.lp
#const n = 50.
#const k = 25.
#const h = 6.
tile(1,5,13).
tile(2,12,8).
tile(3,9,11).
tile(4,8,13).
tile(5,14,12).
tile(6,22,18).
tile(7,3,3).
tile(8,8,18).
tile(9,18,17).
tile(10,13,8).
tile(11,21,5).
tile(12,9,19).
tile(13,25,13).
tile(14,12,16).
tile(15,13,16).
tile(16,1,7).
tile(17,20,4).
tile(18,18,23).
tile(19,8,6).
tile(20,1,10).
tile(21,16,10).
tile(22,3,7).
tile(23,11,8).
tile(24,20,11).
tile(25,8,10).
tile(26,19,12).
tile(27,1,1).
tile(28,24,23).
tile(29,2,25).
tile(30,11,25).
tile(31,3,23).
tile(32,15,11).
tile(33,10,23).
tile(34,11,8).
tile(35,12,5).
tile(36,13,11).
tile(37,17,8).
tile(38,2,21).
tile(39,11,10).
tile(40,24,10).
tile(41,10,15).
tile(42,8,12).
tile(43,16,15).
tile(44,15,25).
tile(45,16,10).
tile(46,14,23).
tile(47,12,25).
tile(48,23,23).
tile(49,17,4).
tile(50,21,25).
