minizinc/input/in_50_25_6_1.dzn
n = 50;
k = 25;
h = 6;
tiles = array2d(1..n, 1..2,
[ 5,13
, 12,8
, 9,11
, 8,13
, 14,12
, 22,18
, 3,3
, 8,18
, 18,17
, 13,8
, 21,5
, 9,19
, 25,13
, 12,16
, 13,16
, 1,7
, 20,4
, 18,23
, 8,6
, 1,10
, 16,10
, 3,7
, 11,8
, 20,11
, 8,10
, 19,12
, 1,1
, 24,23
, 2,25
, 11,25
, 3,23
, 15,11
, 10,23
, 11,8
, 12,5
, 13,11
, 17,8
, 2,21
, 11,10
, 24,10
, 10,15
, 8,12
, 16,15
, 15,25
, 16,10
, 14,23
, 12,25
, 23,23
, 17,4
, 21,25
]);